site/input/auxiliary/CO2_RCP45.rcp
1951  313
1952  313
1953  314
1954  314
1955  315
1956  315
1957  315
1958  316
1959  316
1960  317
1961  317
1962  318
1963  318
1964  319
1965  320
1966  321
1967  322
1968  323
1969  324
1970  325
1971  326
1972  327
1973  329
1974  330
1975  331
1976  332
1977  333
1978  335
1979  337
1980  338
1981  340
1982  341
1983  342
1984  344
1985  345
1986  347
1987  349
1988  351
1989  352
1990  354
1991  355
1992  356
1993  357
1994  358
1995  360
1996  361
1997  363
1998  365
1999  367
2000  369
2001  370
2002  373
2003  375
2004  377
2005  379
2006  381
2007  383
2008  385
2009  387
2010  389
2011  391
2012  393
2013  396
2014  398
2015  400
2016  402
2017  404
2018  407
2019  409
2020  411
2021  413
2022  416
2023  418
2024  420
2025  423
2026  425
2027  428
2028  430
2029  433
2030  435
2031  438
2032  440
2033  443
2034  445
2035  448
2036  450
2037  453
2038  456
2039  458
2040  461
2041  463
2042  466
2043  469
2044  471
2045  474
2046  476
2047  479
2048  481
2049  484
2050  487
2051  489
2052  492
2053  494
2054  496
2055  498
2056  501
2057  503
2058  505
2059  507
2060  509
2061  511
2062  513
2063  514
2064  516
2065  518
2066  519
2067  520
2068  522
2069  523
2070  524
2071  525
2072  527
2073  527
2074  528
2075  529
2076  530
2077  530
2078  531
2079  531
2080  531
2081  531
2082  531
2083  532
2084  532
2085  532
2086  532
2087  533
2088  533
2089  533
2090  534
2091  534
2092  535
2093  535
2094  535
2095  536
2096  536
2097  537
2098  537
2099  538
2100  538
