inst/defaultDir/input/auxiliary/CO2_RCP45.txt
1951  311.1
1952  311.5
1953  311.9
1954  312.4
1955  313.0
1956  313.6
1957  314.2
1958  314.9
1959  316.0
1960  316.9
1961  317.6
1962  318.5
1963  319.0
1964  319.6
1965  320.0
1966  321.4
1967  322.2
1968  323.0
1969  324.6
1970  325.7
1971  326.3
1972  327.5
1973  329.7
1974  330.2
1975  331.1
1976  332.0
1977  333.8
1978  335.4
1979  336.8
1980  338.8
1981  340.1
1982  341.5
1983  343.1
1984  344.7
1985  346.1
1986  347.4
1987  349.2
1988  351.6
1989  353.1
1990  354.4
1991  355.6
1992  356.5
1993  357.1
1994  358.8
1995  360.8
1996  362.6
1997  363.7
1998  366.7
1999  368.4
2000  369.6
2001  371.1
2002  373.3
2003  375.8
2004  377.5
2005  379.8
2006  381.9
2007  383.8
2008  385.6
2009  387.4
2010  389.9
2011  391.7
2012  393.9
2013  396.5
2014  398.7
2015  400.8
2016  404.2
2017  406.6
2018  408.5
2019  409
2020  411
2021  413
2022  416
2023  418
2024  420
2025  423
2026  425
2027  428
2028  430
2029  433
2030  435
2031  438
2032  440
2033  443
2034  445
2035  448
2036  450
2037  453
2038  456
2039  458
2040  461
2041  463
2042  466
2043  469
2044  471
2045  474
2046  476
2047  479
2048  481
2049  484
2050  487
2051  489
2052  492
2053  494
2054  496
2055  498
2056  501
2057  503
2058  505
2059  507
2060  509
2061  511
2062  513
2063  514
2064  516
2065  518
2066  519
2067  520
2068  522
2069  523
2070  524
2071  525
2072  527
2073  527
2074  528
2075  529
2076  530
2077  530
2078  531
2079  531
2080  531
2081  531
2082  531
2083  532
2084  532
2085  532
2086  532
2087  533
2088  533
2089  533
2090  534
2091  534
2092  535
2093  535
2094  535
2095  536
2096  536
2097  537
2098  537
2099  538
2100  538
